\ This file has been generated by DOcplex
\ ENCODING=ISO-8859-1
\Problem name: dectiger problem

Minimize
 obj: V
Subject To
 c1: V + 110.328125000000 a1_u0_x0 + 163 a1_u1_x0 + 108 a1_u2_x0
     + 110.328125000000 a1_u0_x1 + 108 a1_u1_x1 + 163 a1_u2_x1 >= 0
 c2: V + 163 a1_u0_x0 + 137.500000000000 a1_u1_x0 + 162.500000000000 a1_u2_x0
     + 108 a1_u0_x1 + 102.500000000000 a1_u1_x1 + 162.500000000000 a1_u2_x1 >= 
     0
 c3: V + 108 a1_u0_x0 + 162.500000000000 a1_u1_x0 + 102.500000000000 a1_u2_x0
     + 163 a1_u0_x1 + 162.500000000000 a1_u1_x1 + 137.500000000000 a1_u2_x1 >= 
     0
 c4: a1_u0_x0 + a1_u1_x0 + a1_u2_x0 = 1
 c5: a1_u0_x1 + a1_u1_x1 + a1_u2_x1 = 1

Bounds
       V Free
End
